Version identifier: 22.1.1.0 | 2022-11-28 | 9160aff4d
CPXPARAM_Threads                                 8
CPXPARAM_Emphasis_MIP                            5
CPXPARAM_TimeLimit                               3600
CPXPARAM_MIP_Tolerances_MIPGap                   0.029999999999999999
Tried aggregator 2 times.
MIP Presolve eliminated 353 rows and 198 columns.
Aggregator did 82 substitutions.
Reduced MIP has 1052 rows, 845 columns, and 3968 nonzeros.
Reduced MIP has 728 binaries, 117 generals, 0 SOSs, and 0 indicators.
Presolve time = 0.00 sec. (3.77 ticks)
Found incumbent of value 857.000000 after 0.02 sec. (19.02 ticks)
Probing fixed 34 vars, tightened 31 bounds.
Probing time = 0.00 sec. (2.98 ticks)
Tried aggregator 1 time.
Detecting symmetries...
MIP Presolve eliminated 51 rows and 35 columns.
Reduced MIP has 1001 rows, 810 columns, and 3772 nonzeros.
Reduced MIP has 693 binaries, 117 generals, 0 SOSs, and 0 indicators.
Presolve time = 0.00 sec. (3.59 ticks)
Probing time = 0.00 sec. (2.25 ticks)
Clique table members: 1327.
MIP emphasis: heuristic.
MIP search method: dynamic search.
Parallel mode: deterministic, using up to 8 threads.
Root relaxation solution time = 0.02 sec. (5.70 ticks)

        Nodes                                         Cuts/
   Node  Left     Objective  IInf  Best Integer    Best Bound    ItCnt     Gap

*     0+    0                          857.0000        0.0000           100.00%
*     0     0      integral     0      314.0000      314.0000      345    0.00%
Elapsed time = 0.05 sec. (35.82 ticks, tree = 0.00 MB, solutions = 2)
Version identifier: 22.1.1.0 | 2022-11-28 | 9160aff4d
CPXPARAM_Threads                                 8
CPXPARAM_Emphasis_MIP                            5
CPXPARAM_TimeLimit                               3600
CPXPARAM_MIP_Tolerances_MIPGap                   0.029999999999999999
Tried aggregator 4 times.
MIP Presolve eliminated 469 rows and 285 columns.
Aggregator did 87 substitutions.
Reduced MIP has 1627 rows, 1321 columns, and 6206 nonzeros.
Reduced MIP has 1141 binaries, 180 generals, 0 SOSs, and 0 indicators.
Presolve time = 0.01 sec. (8.69 ticks)
Probing fixed 79 vars, tightened 74 bounds.
Probing time = 0.01 sec. (6.60 ticks)
Tried aggregator 2 times.
Detecting symmetries...
MIP Presolve eliminated 105 rows and 82 columns.
Aggregator did 1 substitutions.
Reduced MIP has 1521 rows, 1238 columns, and 5780 nonzeros.
Reduced MIP has 1058 binaries, 180 generals, 0 SOSs, and 0 indicators.
Presolve time = 0.01 sec. (5.74 ticks)
Probing fixed 8 vars, tightened 9 bounds.
Probing time = 0.01 sec. (5.78 ticks)
Clique table members: 3644.
MIP emphasis: heuristic.
MIP search method: dynamic search.
Parallel mode: deterministic, using up to 8 threads.
Root relaxation solution time = 0.04 sec. (19.00 ticks)

        Nodes                                         Cuts/
   Node  Left     Objective  IInf  Best Integer    Best Bound    ItCnt     Gap

      0     0      323.5000    75                    323.5000      719         
*     0+    0                          478.0000      323.5000            32.32%
*     0+    0                          326.0000      323.5000             0.77%
*     0+    0                          324.0000      323.5000             0.15%
      0     0        cutoff            324.0000      324.0000      719    0.00%
Elapsed time = 0.19 sec. (123.54 ticks, tree = 0.01 MB, solutions = 3)
Version identifier: 22.1.1.0 | 2022-11-28 | 9160aff4d
CPXPARAM_Threads                                 8
CPXPARAM_Emphasis_MIP                            5
CPXPARAM_TimeLimit                               3600
CPXPARAM_MIP_Tolerances_MIPGap                   0.029999999999999999
Tried aggregator 3 times.
MIP Presolve eliminated 515 rows and 321 columns.
Aggregator did 95 substitutions.
Reduced MIP has 2220 rows, 1805 columns, and 8548 nonzeros.
Reduced MIP has 1566 binaries, 239 generals, 0 SOSs, and 0 indicators.
Presolve time = 0.01 sec. (8.20 ticks)
Found incumbent of value 884.000000 after 0.06 sec. (56.66 ticks)
Probing fixed 121 vars, tightened 117 bounds.
Probing time = 0.02 sec. (12.50 ticks)
Cover probing fixed 0 vars, tightened 7 bounds.
Tried aggregator 1 time.
Detecting symmetries...
MIP Presolve eliminated 163 rows and 132 columns.
MIP Presolve modified 3 coefficients.
Reduced MIP has 2057 rows, 1673 columns, and 7865 nonzeros.
Reduced MIP has 1434 binaries, 239 generals, 0 SOSs, and 0 indicators.
Presolve time = 0.01 sec. (7.30 ticks)
Probing time = 0.00 sec. (3.11 ticks)
Clique table members: 5392.
MIP emphasis: heuristic.
MIP search method: dynamic search.
Parallel mode: deterministic, using up to 8 threads.
Root relaxation solution time = 0.06 sec. (50.23 ticks)

        Nodes                                         Cuts/
   Node  Left     Objective  IInf  Best Integer    Best Bound    ItCnt     Gap

*     0+    0                          884.0000        0.0000           100.00%
*     0     0      integral     0      361.0000      361.0000     1404    0.00%
Elapsed time = 0.16 sec. (135.53 ticks, tree = 0.00 MB, solutions = 2)
Version identifier: 22.1.1.0 | 2022-11-28 | 9160aff4d
CPXPARAM_Threads                                 8
CPXPARAM_Emphasis_MIP                            5
CPXPARAM_TimeLimit                               3600
CPXPARAM_MIP_Tolerances_MIPGap                   0.029999999999999999
Tried aggregator 2 times.
MIP Presolve eliminated 758 rows and 525 columns.
Aggregator did 102 substitutions.
Reduced MIP has 2435 rows, 1980 columns, and 9406 nonzeros.
Reduced MIP has 1712 binaries, 268 generals, 0 SOSs, and 0 indicators.
Presolve time = 0.01 sec. (8.54 ticks)
Probing fixed 177 vars, tightened 167 bounds.
Probing time = 0.02 sec. (14.01 ticks)
Tried aggregator 1 time.
Detecting symmetries...
MIP Presolve eliminated 223 rows and 180 columns.
Reduced MIP has 2212 rows, 1800 columns, and 8468 nonzeros.
Reduced MIP has 1532 binaries, 268 generals, 0 SOSs, and 0 indicators.
Presolve time = 0.01 sec. (5.64 ticks)
Probing time = 0.00 sec. (3.22 ticks)
Clique table members: 5585.
MIP emphasis: heuristic.
MIP search method: dynamic search.
Parallel mode: deterministic, using up to 8 threads.
Root relaxation solution time = 0.06 sec. (50.41 ticks)

        Nodes                                         Cuts/
   Node  Left     Objective  IInf  Best Integer    Best Bound    ItCnt     Gap

*     0+    0                          911.0000        0.0000           100.00%
      0     0      422.3333    98      911.0000      422.3333     1340   53.64%
*     0+    0                          427.0000      422.3333             1.09%
      0     0        cutoff            427.0000      427.0000     1340    0.00%
Elapsed time = 0.29 sec. (218.58 ticks, tree = 0.01 MB, solutions = 2)

Root node processing (before b&c):
  Real time             =    0.29 sec. (218.68 ticks)
Parallel b&c, 8 threads:
  Real time             =    0.00 sec. (0.00 ticks)
  Sync time (average)   =    0.00 sec.
  Wait time (average)   =    0.00 sec.
                          ------------
Total (root+branch&cut) =    0.29 sec. (218.68 ticks)

Root node processing (before b&c):
  Real time             =    0.16 sec. (135.61 ticks)
Parallel b&c, 8 threads:
  Real time             =    0.00 sec. (0.00 ticks)
  Sync time (average)   =    0.00 sec.
  Wait time (average)   =    0.00 sec.
                          ------------
Total (root+branch&cut) =    0.16 sec. (135.61 ticks)

Root node processing (before b&c):
  Real time             =    0.19 sec. (123.61 ticks)
Parallel b&c, 8 threads:
  Real time             =    0.00 sec. (0.00 ticks)
  Sync time (average)   =    0.00 sec.
  Wait time (average)   =    0.00 sec.
                          ------------
Total (root+branch&cut) =    0.19 sec. (123.61 ticks)

Root node processing (before b&c):
  Real time             =    0.05 sec. (35.86 ticks)
Parallel b&c, 8 threads:
  Real time             =    0.00 sec. (0.00 ticks)
  Sync time (average)   =    0.00 sec.
  Wait time (average)   =    0.00 sec.
                          ------------
Total (root+branch&cut) =    0.05 sec. (35.86 ticks)
Version identifier: 22.1.1.0 | 2022-11-28 | 9160aff4d
CPXPARAM_Threads                                 8
CPXPARAM_Emphasis_MIP                            5
CPXPARAM_TimeLimit                               3600
CPXPARAM_MIP_Tolerances_MIPGap                   0.029999999999999999
Tried aggregator 2 times.
MIP Presolve eliminated 353 rows and 198 columns.
Aggregator did 82 substitutions.
Reduced MIP has 1052 rows, 845 columns, and 3968 nonzeros.
Reduced MIP has 728 binaries, 117 generals, 0 SOSs, and 0 indicators.
Presolve time = 0.00 sec. (3.77 ticks)
Found incumbent of value 857.000000 after 0.02 sec. (19.02 ticks)
Probing fixed 34 vars, tightened 31 bounds.
Probing time = 0.00 sec. (2.98 ticks)
Tried aggregator 1 time.
Detecting symmetries...
MIP Presolve eliminated 51 rows and 35 columns.
Reduced MIP has 1001 rows, 810 columns, and 3772 nonzeros.
Reduced MIP has 693 binaries, 117 generals, 0 SOSs, and 0 indicators.
Presolve time = 0.00 sec. (3.59 ticks)
Probing time = 0.00 sec. (2.25 ticks)
Clique table members: 1327.
MIP emphasis: heuristic.
MIP search method: dynamic search.
Parallel mode: deterministic, using up to 8 threads.
Root relaxation solution time = 0.02 sec. (5.70 ticks)

        Nodes                                         Cuts/
   Node  Left     Objective  IInf  Best Integer    Best Bound    ItCnt     Gap

*     0+    0                          857.0000        0.0000           100.00%
*     0     0      integral     0      314.0000      314.0000      345    0.00%
Elapsed time = 0.06 sec. (35.82 ticks, tree = 0.00 MB, solutions = 2)
Version identifier: 22.1.1.0 | 2022-11-28 | 9160aff4d
CPXPARAM_Threads                                 8
CPXPARAM_Emphasis_MIP                            5
CPXPARAM_TimeLimit                               3600
CPXPARAM_MIP_Tolerances_MIPGap                   0.029999999999999999
Tried aggregator 4 times.
MIP Presolve eliminated 469 rows and 285 columns.
Aggregator did 87 substitutions.
Reduced MIP has 1627 rows, 1321 columns, and 6206 nonzeros.
Reduced MIP has 1141 binaries, 180 generals, 0 SOSs, and 0 indicators.
Presolve time = 0.01 sec. (8.69 ticks)
Probing fixed 79 vars, tightened 74 bounds.
Probing time = 0.01 sec. (6.60 ticks)
Tried aggregator 2 times.
Detecting symmetries...
MIP Presolve eliminated 105 rows and 82 columns.
Aggregator did 1 substitutions.
Reduced MIP has 1521 rows, 1238 columns, and 5780 nonzeros.
Reduced MIP has 1058 binaries, 180 generals, 0 SOSs, and 0 indicators.
Presolve time = 0.01 sec. (5.74 ticks)
Probing fixed 8 vars, tightened 9 bounds.
Probing time = 0.01 sec. (5.78 ticks)
Clique table members: 3644.
MIP emphasis: heuristic.
MIP search method: dynamic search.
Parallel mode: deterministic, using up to 8 threads.
Root relaxation solution time = 0.04 sec. (19.00 ticks)

        Nodes                                         Cuts/
   Node  Left     Objective  IInf  Best Integer    Best Bound    ItCnt     Gap

      0     0      323.5000    75                    323.5000      719         
*     0+    0                          478.0000      323.5000            32.32%
*     0+    0                          326.0000      323.5000             0.77%
*     0+    0                          324.0000      323.5000             0.15%
      0     0        cutoff            324.0000      324.0000      719    0.00%
Elapsed time = 0.18 sec. (123.54 ticks, tree = 0.01 MB, solutions = 3)
Version identifier: 22.1.1.0 | 2022-11-28 | 9160aff4d
CPXPARAM_Threads                                 8
CPXPARAM_Emphasis_MIP                            5
CPXPARAM_TimeLimit                               3600
CPXPARAM_MIP_Tolerances_MIPGap                   0.029999999999999999
Tried aggregator 3 times.
MIP Presolve eliminated 515 rows and 321 columns.
Aggregator did 95 substitutions.
Reduced MIP has 2220 rows, 1805 columns, and 8548 nonzeros.
Reduced MIP has 1566 binaries, 239 generals, 0 SOSs, and 0 indicators.
Presolve time = 0.02 sec. (8.20 ticks)
Found incumbent of value 884.000000 after 0.06 sec. (56.66 ticks)
Probing fixed 121 vars, tightened 117 bounds.
Probing time = 0.02 sec. (12.50 ticks)
Cover probing fixed 0 vars, tightened 7 bounds.
Tried aggregator 1 time.
Detecting symmetries...
MIP Presolve eliminated 163 rows and 132 columns.
MIP Presolve modified 3 coefficients.
Reduced MIP has 2057 rows, 1673 columns, and 7865 nonzeros.
Reduced MIP has 1434 binaries, 239 generals, 0 SOSs, and 0 indicators.
Presolve time = 0.01 sec. (7.30 ticks)
Probing time = 0.00 sec. (3.11 ticks)
Clique table members: 5392.
MIP emphasis: heuristic.
MIP search method: dynamic search.
Parallel mode: deterministic, using up to 8 threads.
Root relaxation solution time = 0.06 sec. (50.23 ticks)

        Nodes                                         Cuts/
   Node  Left     Objective  IInf  Best Integer    Best Bound    ItCnt     Gap

*     0+    0                          884.0000        0.0000           100.00%
*     0     0      integral     0      361.0000      361.0000     1404    0.00%
Elapsed time = 0.16 sec. (135.53 ticks, tree = 0.00 MB, solutions = 2)
Version identifier: 22.1.1.0 | 2022-11-28 | 9160aff4d
CPXPARAM_Threads                                 8
CPXPARAM_Emphasis_MIP                            5
CPXPARAM_TimeLimit                               3600
CPXPARAM_MIP_Tolerances_MIPGap                   0.029999999999999999
Tried aggregator 2 times.
MIP Presolve eliminated 758 rows and 525 columns.
Aggregator did 102 substitutions.
Reduced MIP has 2435 rows, 1980 columns, and 9406 nonzeros.
Reduced MIP has 1712 binaries, 268 generals, 0 SOSs, and 0 indicators.
Presolve time = 0.02 sec. (8.54 ticks)
Probing fixed 177 vars, tightened 167 bounds.
Probing time = 0.02 sec. (14.01 ticks)
Tried aggregator 1 time.
Detecting symmetries...
MIP Presolve eliminated 223 rows and 180 columns.
Reduced MIP has 2212 rows, 1800 columns, and 8468 nonzeros.
Reduced MIP has 1532 binaries, 268 generals, 0 SOSs, and 0 indicators.
Presolve time = 0.01 sec. (5.64 ticks)
Probing time = 0.00 sec. (3.22 ticks)
Clique table members: 5585.
MIP emphasis: heuristic.
MIP search method: dynamic search.
Parallel mode: deterministic, using up to 8 threads.
Root relaxation solution time = 0.06 sec. (50.41 ticks)

        Nodes                                         Cuts/
   Node  Left     Objective  IInf  Best Integer    Best Bound    ItCnt     Gap

*     0+    0                          911.0000        0.0000           100.00%
      0     0      422.3333    98      911.0000      422.3333     1340   53.64%
*     0+    0                          427.0000      422.3333             1.09%
      0     0        cutoff            427.0000      427.0000     1340    0.00%
Elapsed time = 0.29 sec. (218.58 ticks, tree = 0.01 MB, solutions = 2)

Root node processing (before b&c):
  Real time             =    0.29 sec. (218.68 ticks)
Parallel b&c, 8 threads:
  Real time             =    0.00 sec. (0.00 ticks)
  Sync time (average)   =    0.00 sec.
  Wait time (average)   =    0.00 sec.
                          ------------
Total (root+branch&cut) =    0.29 sec. (218.68 ticks)

Root node processing (before b&c):
  Real time             =    0.16 sec. (135.61 ticks)
Parallel b&c, 8 threads:
  Real time             =    0.00 sec. (0.00 ticks)
  Sync time (average)   =    0.00 sec.
  Wait time (average)   =    0.00 sec.
                          ------------
Total (root+branch&cut) =    0.16 sec. (135.61 ticks)

Root node processing (before b&c):
  Real time             =    0.18 sec. (123.61 ticks)
Parallel b&c, 8 threads:
  Real time             =    0.00 sec. (0.00 ticks)
  Sync time (average)   =    0.00 sec.
  Wait time (average)   =    0.00 sec.
                          ------------
Total (root+branch&cut) =    0.18 sec. (123.61 ticks)

Root node processing (before b&c):
  Real time             =    0.06 sec. (35.86 ticks)
Parallel b&c, 8 threads:
  Real time             =    0.00 sec. (0.00 ticks)
  Sync time (average)   =    0.00 sec.
  Wait time (average)   =    0.00 sec.
                          ------------
Total (root+branch&cut) =    0.06 sec. (35.86 ticks)
